
Gurobi 10.0.1 (win64, gurobi_cl) logging started Tue Apr 25 11:18:51 2023

Set parameter LogFile to value "gurobi.log"
Using license file C:\Users\62499\gurobi.lic

Gurobi 10.0.1 (win64, gurobi_cl) logging started Tue Apr 25 11:22:47 2023

Set parameter LogFile to value "gurobi.log"
Using license file C:\Users\62499\gurobi.lic

Gurobi 10.0.0 (win64, gurobi_cl) logging started Tue Apr 25 16:13:54 2023

Set parameter LogFile to value "gurobi.log"
Using license file C:\Users\GEO\gurobi.lic

Gurobi 10.0.0 (win64, gurobi_cl) logging started Tue Apr 25 16:14:38 2023

Set parameter LogFile to value "gurobi.log"
Using license file C:\Users\GEO\gurobi.lic

Gurobi 10.0.0 (win64, gurobi_cl) logging started Tue Apr 25 16:20:24 2023

Set parameter LogFile to value "gurobi.log"
Using license file C:\Users\GEO\gurobi.lic

Gurobi 10.0.0 (win64, gurobi_cl) logging started Tue Apr 25 16:24:18 2023

Set parameter LogFile to value "gurobi.log"
Using license file C:\Users\GEO\gurobi.lic

Gurobi 10.0.0 (win64, gurobi_cl) logging started Tue Apr 25 16:26:34 2023

Set parameter LogFile to value "gurobi.log"
Using license file C:\Users\GEO\gurobi.lic

Gurobi 10.0.0 (win64, gurobi_cl) logging started Tue Apr 25 16:27:44 2023

Set parameter LogFile to value "gurobi.log"
Using license file C:\Users\GEO\gurobi.lic

Gurobi 10.0.0 (win64, gurobi_cl) logging started Tue Apr 25 16:32:03 2023

Set parameter LogFile to value "gurobi.log"
Using license file C:\Users\GEO\gurobi.lic

Gurobi 10.0.0 (win64, gurobi_cl) logging started Tue Apr 25 16:34:04 2023

Set parameter LogFile to value "gurobi.log"
Using license file C:\Users\GEO\gurobi.lic

Gurobi 10.0.0 (win64, gurobi_cl) logging started Tue Apr 25 16:38:58 2023

Set parameter LogFile to value "gurobi.log"
Using license file C:\Users\GEO\gurobi.lic
